certificates/rado_a9_c281_N32.cnf
c Rad2 upper bound instance: x1 + 9*x2 - x3 = 281, interval [1,32]
p cnf 32 182
1 8 32 0
-1 -8 -32 0
2 9 32 0
-2 -9 -32 0
1 3 31 0
-1 -3 -31 0
3 10 32 0
-3 -10 -32 0
2 4 31 0
-2 -4 -31 0
4 11 32 0
-4 -11 -32 0
3 5 31 0
-3 -5 -31 0
5 12 32 0
-5 -12 -32 0
4 6 31 0
-4 -6 -31 0
6 13 32 0
-6 -13 -32 0
5 7 31 0
-5 -7 -31 0
7 14 32 0
-7 -14 -32 0
6 8 31 0
-6 -8 -31 0
8 15 32 0
-8 -15 -32 0
7 9 31 0
-7 -9 -31 0
9 16 32 0
-9 -16 -32 0
8 10 31 0
-8 -10 -31 0
10 17 32 0
-10 -17 -32 0
9 11 31 0
-9 -11 -31 0
11 18 32 0
-11 -18 -32 0
1 12 30 0
-1 -12 -30 0
10 12 31 0
-10 -12 -31 0
12 19 32 0
-12 -19 -32 0
2 13 30 0
-2 -13 -30 0
11 13 31 0
-11 -13 -31 0
13 20 32 0
-13 -20 -32 0
3 14 30 0
-3 -14 -30 0
12 14 31 0
-12 -14 -31 0
14 21 32 0
-14 -21 -32 0
4 15 30 0
-4 -15 -30 0
13 15 31 0
-13 -15 -31 0
15 22 32 0
-15 -22 -32 0
5 16 30 0
-5 -16 -30 0
14 16 31 0
-14 -16 -31 0
16 23 32 0
-16 -23 -32 0
6 17 30 0
-6 -17 -30 0
15 17 31 0
-15 -17 -31 0
17 24 32 0
-17 -24 -32 0
7 18 30 0
-7 -18 -30 0
16 18 31 0
-16 -18 -31 0
18 25 32 0
-18 -25 -32 0
8 19 30 0
-8 -19 -30 0
17 19 31 0
-17 -19 -31 0
19 26 32 0
-19 -26 -32 0
9 20 30 0
-9 -20 -30 0
18 20 31 0
-18 -20 -31 0
20 27 32 0
-20 -27 -32 0
1 21 29 0
-1 -21 -29 0
10 21 30 0
-10 -21 -30 0
19 21 31 0
-19 -21 -31 0
21 28 32 0
-21 -28 -32 0
2 22 29 0
-2 -22 -29 0
11 22 30 0
-11 -22 -30 0
20 22 31 0
-20 -22 -31 0
22 29 32 0
-22 -29 -32 0
3 23 29 0
-3 -23 -29 0
12 23 30 0
-12 -23 -30 0
21 23 31 0
-21 -23 -31 0
23 30 32 0
-23 -30 -32 0
4 24 29 0
-4 -24 -29 0
13 24 30 0
-13 -24 -30 0
22 24 31 0
-22 -24 -31 0
24 31 32 0
-24 -31 -32 0
5 25 29 0
-5 -25 -29 0
14 25 30 0
-14 -25 -30 0
23 25 31 0
-23 -25 -31 0
25 32 0
-25 -32 0
6 26 29 0
-6 -26 -29 0
15 26 30 0
-15 -26 -30 0
24 26 31 0
-24 -26 -31 0
7 27 29 0
-7 -27 -29 0
16 27 30 0
-16 -27 -30 0
25 27 31 0
-25 -27 -31 0
8 28 29 0
-8 -28 -29 0
17 28 30 0
-17 -28 -30 0
26 28 31 0
-26 -28 -31 0
9 29 0
-9 -29 0
18 29 30 0
-18 -29 -30 0
27 29 31 0
-27 -29 -31 0
1 28 30 0
-1 -28 -30 0
10 29 30 0
-10 -29 -30 0
19 30 0
-19 -30 0
28 30 31 0
-28 -30 -31 0
2 28 31 0
-2 -28 -31 0
11 29 31 0
-11 -29 -31 0
20 30 31 0
-20 -30 -31 0
29 31 0
-29 -31 0
3 28 32 0
-3 -28 -32 0
12 29 32 0
-12 -29 -32 0
21 30 32 0
-21 -30 -32 0
30 31 32 0
-30 -31 -32 0
