certificates/rado_a9_c281_N32.drat
-31 -32 0
-32 0
25 0
31 0
-29 0
-23 0
-27 0
9 0
22 0
12 0
16 0
3 0
30 0
20 0
7 0
0
